NAME : census.-65135568.tour
COMMENT : Length = -65135568
COMMENT : Found by LKH [Keld Helsgaun] Tue May 25 08:54:47 2021
TYPE : TOUR
DIMENSION : 68
TOUR_SECTION
1
3
50
39
2
40
29
45
48
51
43
41
56
12
28
59
21
20
30
44
55
13
22
58
16
5
38
10
23
4
24
18
57
26
36
65
61
19
11
53
68
46
7
60
15
31
17
42
14
62
25
35
6
49
63
67
47
9
8
32
37
34
52
64
27
33
66
54
-1
EOF
